999999999 8 13 14 3 12 19 7 9 17
8 999999999 4 7 7 17 13 2 5 6
13 4 999999999 2 13 23 16 8 7 9
14 7 2 999999999 14 24 17 9 9 10
3 7 13 14 999999999 12 19 9 10 13
12 17 23 24 12 999999999 29 18 17 27
19 13 16 17 19 29 999999999 14 17 9
7 2 8 9 9 18 14 999999999 17 4
9 5 7 9 10 17 17 17 999999999 9
17 6 9 10 13 27 9 4 9 999999999
